25 2
9 9
0 0 0 14 2 3 4 5 6 7 8 9 10 15 17 19 21 24
12 2 3 1 22
15 2 3 1 25
13 2 3 2 13 12
17 3 3 1 25
5 2 2 2 12 14
18 3 3 1 25
18 3 3 1 25
5 2 3 3 18 23 11
9 2 3 2 13 12
6 2 2 1 18
14 3 3 1 25
8 3 3 1 25
12 2 2 1 25
15 2 3 2 20 16
18 2 2 2 18 22
10 3 3 1 25
10 3 2 1 25
16 2 2 1 25
19 3 2 1 25
8 3 3 1 25
12 2 2 1 25
14 2 3 1 25
15 3 3 1 25
0 0 0 0
